nNurses = 164;
nHours = 25;
minHours = 6;
maxHours = 11;
maxConsec = 7;
maxPresence = 25;
demand = [31, 32, 29, 26, 24, 23, 23, 28, 24, 27, 24, 27, 23, 28, 33, 33, 30, 33, 35, 37, 38, 39, 39, 37, 34];
